149
1000000
357966
146398
235967
17789
352739
635648
427790
329919
395365
679326
469080
66369
130245
113678
23022
32880
137264
178512
234635
43131
89212
320729
169293
319269
228737
486782
29229
587830
109592
247480
42239
108165
23677
116508
132287
338143
488249
68795
240103
713220
355363
499748
262151
346501
64169
381415
688589
431603
192209
107604
572210
123059
364
67210
331949
542558
623492
296250
112225
387591
69184
110285
392008
205822
544720
122509
497811
523254
152862
322751
23769
515589
121015
183587
679190
242585
564512
7577
407232
8158
737849
255568
6612
343562
167694
537788
288149
464528
262892
256091
387414
638882
243505
128859
502189
33169
191983
723688
176511
268342
139048
731658
492512
97288
458447
707100
139482
161660
481051
596731
100333
375720
594620
566242
182599
515298
373184
531047
292900
737959
440051
605376
389889
155200
87283
561867
663098
333239
122527
174276
64868
278532
68608
592768
240581
278177
154842
585032
142946
78906
37000
173339
569414
295614
134304
18349
175075
429332
311411
